(set-logic QF_S)
(declare-fun var0 () String)
(assert (str.in.re var0 (re.++ (re.union (re.union (str.to.re "00") (str.to.re "11")) (re.union (str.to.re "22") (str.to.re "3"))) (re.++ (re.+ (re.+ (str.to.re "44"))) (re.++ (re.union (re.* (str.to.re "555")) (re.* (str.to.re "66"))) (re.++ (re.union (re.+ (str.to.re "7")) (re.+ (str.to.re "88"))) (re.++ (re.* (re.* (str.to.re "999"))) (re.++ (re.union (re.union (str.to.re "aaa") (str.to.re "bbb")) (re.union (str.to.re "ccc") (str.to.re "ddd"))) (re.++ (re.* (re.* (str.to.re "ee"))) (re.++ (re.union (re.+ (str.to.re "ff")) (re.+ (str.to.re "gg"))) (re.++ (re.+ (re.* (str.to.re "hhh"))) (re.++ (re.+ (re.* (str.to.re "iii"))) (re.++ (re.union (re.* (str.to.re "j")) (re.* (str.to.re "kk"))) (re.++ (re.union (re.+ (str.to.re "l")) (re.+ (str.to.re "mmm"))) (re.++ (re.* (re.union (str.to.re "n") (str.to.re "oo"))) (re.++ (re.* (re.union (str.to.re "p") (str.to.re "q"))) (re.++ (re.+ (re.+ (str.to.re "rrr"))) (re.++ (re.+ (re.+ (str.to.re "sss"))) (re.* (re.union (str.to.re "t") (str.to.re "uu")))))))))))))))))))))
(check-sat)